p cnf 356 835
e 1 2 3 4 5 6 7 8 9 10 11 12 13 14 15 16 17 18 19 20 21 22 23 24 25 26 27 28 29 30 31 32 33 34 35 36 37 38 39 40 41 42 43 44 45 46 47 48 49 50 51 52 53 54 55 56 57 58 59 60 61 62 63 64 65 66 67 68 69 70 71 72 73 74 75 76 0
a 77 78 79 0
e 80 81 82 83 84 85 86 87 88 89 90 91 92 93 94 95 96 97 98 99 100 101 102 103 104 105 106 107 108 109 110 111 112 113 114 115 116 117 118 119 120 121 122 123 124 125 126 127 128 129 130 131 132 133 134 135 136 137 138 139 140 141 142 143 144 145 146 147 148 149 150 151 152 153 154 155 156 157 158 159 160 161 162 163 164 165 166 167 168 169 170 171 172 173 174 175 176 177 178 179 180 181 182 183 184 185 0
a 186 187 188 0
e 189 190 191 192 193 194 195 196 197 198 199 200 201 202 203 204 205 206 207 208 209 210 211 212 213 214 215 216 217 218 219 220 221 222 223 224 225 226 227 228 229 230 231 232 233 234 235 236 237 238 239 240 241 242 243 244 245 246 247 248 249 250 251 252 253 254 255 256 257 258 259 260 261 262 263 264 265 266 267 268 269 270 271 272 273 274 275 276 277 278 279 280 281 282 283 284 285 286 287 288 289 290 291 292 293 294 0
a 295 296 297 0
e 298 299 300 301 302 303 304 305 306 307 308 309 310 311 312 313 314 315 316 317 318 319 320 321 322 323 324 325 326 327 328 329 330 331 332 333 334 335 336 337 338 339 340 341 342 343 344 345 346 347 348 349 350 351 352 353 354 355 356 0
1 0
166 0
275 0
-125 0
113 0
-343 0
330 0
-20 0
56 0
-124 0
-238 0
-347 0
-356 0
-8 0
-177 0
222 0
-70 0
-39 0
163 0
-128 0
-234 0
-291 0
-42 0
224 0
332 0
-346 0
-236 0
350 0
-51 0
59 0
-127 0
-12 0
-13 0
57 0
274 0
162 0
167 0
114 0
219 0
221 0
-180 0
161 0
328 0
-129 0
-289 0
-293 0
-2 0
-10 0
-183 0
333 0
-349 0
276 0
-278 0
-116 0
-7 0
58 0
168 0
-288 0
-240 0
54 0
-178 0
-14 0
-21 0
55 0
165 0
217 0
-68 0
-292 0
218 0
-182 0
223 0
-60 0
-19 0
-36 0
-45 0
272 0
115 0
-233 0
-126 0
-75 0
-287 0
270 0
-11 0
-22 0
-348 0
52 0
-225 0
-74 0
329 0
-290 0
164 0
277 0
331 0
-73 0
273 0
-239 0
-345 0
-48 0
-286 0
109 0
327 0
-3 0
-33 0
110 0
-71 0
-235 0
-169 0
-131 0
-9 0
-18 0
271 0
-181 0
-5 0
112 0
-130 0
220 0
-344 0
-184 0
326 0
-17 0
108 0
-6 0
53 0
-69 0
111 0
-342 0
-72 0
-334 0
-4 0
-15 0
-16 0
-237 0
-179 0
-76 23 0
-132 76 0
-185 132 0
-241 185 0
-294 241 0
-32 88 0
-35 91 0
-38 94 0
-41 97 0
-44 100 0
-47 103 0
-50 106 0
-88 141 0
-91 144 0
-94 147 0
-97 150 0
-100 153 0
-103 156 0
-106 159 0
-141 197 0
-144 200 0
-147 203 0
-150 206 0
-153 209 0
-156 212 0
-159 215 0
-197 250 0
-200 253 0
-203 256 0
-206 259 0
-209 262 0
-212 265 0
-215 268 0
-250 306 0
-253 309 0
-256 312 0
-259 315 0
-262 318 0
-265 321 0
-268 324 0
-89 142 0
-92 145 0
-95 148 0
-98 151 0
-101 154 0
-104 157 0
-107 160 0
-142 198 0
-145 201 0
-148 204 0
-151 207 0
-154 210 0
-157 213 0
-160 216 0
-198 251 0
-201 254 0
-204 257 0
-207 260 0
-210 263 0
-213 266 0
-216 269 0
-251 307 0
-254 310 0
-257 313 0
-260 316 0
-263 319 0
-266 322 0
-269 325 0
-88 -89 0
-91 -92 0
-94 -95 0
-97 -98 0
-100 -101 0
-103 -104 0
-106 -107 0
-141 -142 0
-144 -145 0
-147 -148 0
-150 -151 0
-153 -154 0
-156 -157 0
-159 -160 0
-197 -198 0
-200 -201 0
-203 -204 0
-206 -207 0
-209 -210 0
-212 -213 0
-215 -216 0
-250 -251 0
-253 -254 0
-256 -257 0
-259 -260 0
-262 -263 0
-265 -266 0
-268 -269 0
-306 -307 0
-309 -310 0
-312 -313 0
-315 -316 0
-318 -319 0
-321 -322 0
-324 -325 0
-31 32 0
31 -32 0
-34 35 0
34 -35 0
-37 38 0
37 -38 0
-40 41 0
40 -41 0
-43 44 0
43 -44 0
-46 47 0
46 -47 0
-49 50 0
49 -50 0
-87 88 89 0
87 -88 0
87 -89 0
-90 91 92 0
90 -91 0
90 -92 0
-93 94 95 0
93 -94 0
93 -95 0
-96 97 98 0
96 -97 0
96 -98 0
-99 100 101 0
99 -100 0
99 -101 0
-102 103 104 0
102 -103 0
102 -104 0
-105 106 107 0
105 -106 0
105 -107 0
-140 141 142 0
140 -141 0
140 -142 0
-143 144 145 0
143 -144 0
143 -145 0
-146 147 148 0
146 -147 0
146 -148 0
-149 150 151 0
149 -150 0
149 -151 0
-152 153 154 0
152 -153 0
152 -154 0
-155 156 157 0
155 -156 0
155 -157 0
-158 159 160 0
158 -159 0
158 -160 0
-196 197 198 0
196 -197 0
196 -198 0
-199 200 201 0
199 -200 0
199 -201 0
-202 203 204 0
202 -203 0
202 -204 0
-205 206 207 0
205 -206 0
205 -207 0
-208 209 210 0
208 -209 0
208 -210 0
-211 212 213 0
211 -212 0
211 -213 0
-214 215 216 0
214 -215 0
214 -216 0
-249 250 251 0
249 -250 0
249 -251 0
-252 253 254 0
252 -253 0
252 -254 0
-255 256 257 0
255 -256 0
255 -257 0
-258 259 260 0
258 -259 0
258 -260 0
-261 262 263 0
261 -262 0
261 -263 0
-264 265 266 0
264 -265 0
264 -266 0
-267 268 269 0
267 -268 0
267 -269 0
-305 306 307 0
305 -306 0
305 -307 0
-308 309 310 0
308 -309 0
308 -310 0
-311 312 313 0
311 -312 0
311 -313 0
-314 315 316 0
314 -315 0
314 -316 0
-317 318 319 0
317 -318 0
317 -319 0
-320 321 322 0
320 -321 0
320 -322 0
-323 324 325 0
323 -324 0
323 -325 0
23 -32 0
23 -35 0
23 -38 0
23 -41 0
23 -44 0
23 -47 0
23 -50 0
76 32 -88 0
76 35 -91 0
76 38 -94 0
76 41 -97 0
76 44 -100 0
76 47 -103 0
76 50 -106 0
132 88 -141 0
132 91 -144 0
132 94 -147 0
132 97 -150 0
132 100 -153 0
132 103 -156 0
132 106 -159 0
185 141 -197 0
185 144 -200 0
185 147 -203 0
185 150 -206 0
185 153 -209 0
185 156 -212 0
185 159 -215 0
241 197 -250 0
241 200 -253 0
241 203 -256 0
241 206 -259 0
241 209 -262 0
241 212 -265 0
241 215 -268 0
294 250 -306 0
294 253 -309 0
294 256 -312 0
294 259 -315 0
294 262 -318 0
294 265 -321 0
294 268 -324 0
76 -89 0
76 -92 0
76 -95 0
76 -98 0
76 -101 0
76 -104 0
76 -107 0
132 89 -142 0
132 92 -145 0
132 95 -148 0
132 98 -151 0
132 101 -154 0
132 104 -157 0
132 107 -160 0
185 142 -198 0
185 145 -201 0
185 148 -204 0
185 151 -207 0
185 154 -210 0
185 157 -213 0
185 160 -216 0
241 198 -251 0
241 201 -254 0
241 204 -257 0
241 207 -260 0
241 210 -263 0
241 213 -266 0
241 216 -269 0
294 251 -307 0
294 254 -310 0
294 257 -313 0
294 260 -316 0
294 263 -319 0
294 266 -322 0
294 269 -325 0
24 -32 0
25 -35 0
26 -38 0
27 -41 0
28 -44 0
29 -47 0
30 -50 0
133 88 -141 0
89 -142 0
134 91 -144 0
92 -145 0
135 94 -147 0
95 -148 0
136 97 -150 0
98 -151 0
137 100 -153 0
101 -154 0
138 103 -156 0
104 -157 0
139 106 -159 0
107 -160 0
242 197 -250 0
198 -251 0
243 200 -253 0
201 -254 0
244 203 -256 0
204 -257 0
245 206 -259 0
207 -260 0
246 209 -262 0
210 -263 0
247 212 -265 0
213 -266 0
248 215 -268 0
216 -269 0
80 -89 0
32 -88 0
81 -92 0
35 -91 0
82 -95 0
38 -94 0
83 -98 0
41 -97 0
84 -101 0
44 -100 0
85 -104 0
47 -103 0
86 -107 0
50 -106 0
189 142 -198 0
141 -197 0
190 145 -201 0
144 -200 0
191 148 -204 0
147 -203 0
192 151 -207 0
150 -206 0
193 154 -210 0
153 -209 0
194 157 -213 0
156 -212 0
195 160 -216 0
159 -215 0
298 251 -307 0
250 -306 0
299 254 -310 0
253 -309 0
300 257 -313 0
256 -312 0
301 260 -316 0
259 -315 0
302 263 -319 0
262 -318 0
303 266 -322 0
265 -321 0
304 269 -325 0
268 -324 0
351 -315 -318 -321 -324 0
-351 315 0
-351 318 0
-351 321 0
-351 324 0
352 -315 -318 -321 -306 -309 0
-352 315 0
-352 318 0
-352 321 0
-352 306 0
-352 309 0
353 -312 -321 -324 0
-353 312 0
-353 321 0
-353 324 0
354 -312 -306 -324 0
-354 312 0
-354 306 0
-354 324 0
355 -312 -306 -309 0
-355 312 0
-355 306 0
-355 309 0
351 352 353 354 355 0
-24 61 0
24 -61 0
-25 62 0
-61 62 0
25 -62 61 0
-25 -61 0
-26 63 0
-62 63 0
26 -63 62 0
-26 -62 0
-27 64 0
-63 64 0
27 -64 63 0
-27 -63 0
-28 65 0
-64 65 0
28 -65 64 0
-28 -64 0
-29 66 0
-65 66 0
29 -66 65 0
-29 -65 0
-30 67 0
-66 67 0
30 -67 66 0
-30 -66 0
-133 170 0
133 -170 0
-134 171 0
-170 171 0
134 -171 170 0
-134 -170 0
-135 172 0
-171 172 0
135 -172 171 0
-135 -171 0
-136 173 0
-172 173 0
136 -173 172 0
-136 -172 0
-137 174 0
-173 174 0
137 -174 173 0
-137 -173 0
-138 175 0
-174 175 0
138 -175 174 0
-138 -174 0
-139 176 0
-175 176 0
139 -176 175 0
-139 -175 0
-242 279 0
242 -279 0
-243 280 0
-279 280 0
243 -280 279 0
-243 -279 0
-244 281 0
-280 281 0
244 -281 280 0
-244 -280 0
-245 282 0
-281 282 0
245 -282 281 0
-245 -281 0
-246 283 0
-282 283 0
246 -283 282 0
-246 -282 0
-247 284 0
-283 284 0
247 -284 283 0
-247 -283 0
-248 285 0
-284 285 0
248 -285 284 0
-248 -284 0
-80 117 0
80 -117 0
-81 118 0
-117 118 0
81 -118 117 0
-81 -117 0
-82 119 0
-118 119 0
82 -119 118 0
-82 -118 0
-83 120 0
-119 120 0
83 -120 119 0
-83 -119 0
-84 121 0
-120 121 0
84 -121 120 0
-84 -120 0
-85 122 0
-121 122 0
85 -122 121 0
-85 -121 0
-86 123 0
-122 123 0
86 -123 122 0
-86 -122 0
-189 226 0
189 -226 0
-190 227 0
-226 227 0
190 -227 226 0
-190 -226 0
-191 228 0
-227 228 0
191 -228 227 0
-191 -227 0
-192 229 0
-228 229 0
192 -229 228 0
-192 -228 0
-193 230 0
-229 230 0
193 -230 229 0
-193 -229 0
-194 231 0
-230 231 0
194 -231 230 0
-194 -230 0
-195 232 0
-231 232 0
195 -232 231 0
-195 -231 0
-298 335 0
298 -335 0
-299 336 0
-335 336 0
299 -336 335 0
-299 -335 0
-300 337 0
-336 337 0
300 -337 336 0
-300 -336 0
-301 338 0
-337 338 0
301 -338 337 0
-301 -337 0
-302 339 0
-338 339 0
302 -339 338 0
-302 -338 0
-303 340 0
-339 340 0
303 -340 339 0
-303 -339 0
-304 341 0
-340 341 0
304 -341 340 0
-304 -340 0
-23 67 0
-132 176 0
-241 285 0
-76 123 0
-185 232 0
-294 341 0
-24 32 0
-24 23 0
-25 35 0
-25 23 0
-26 38 0
-26 23 0
-27 41 0
-27 23 0
-28 44 0
-28 23 0
-29 47 0
-29 23 0
-30 50 0
-30 23 0
-133 141 0
-133 -87 0
-133 132 0
-134 144 0
-134 -90 0
-134 132 0
-135 147 0
-135 -93 0
-135 132 0
-136 150 0
-136 -96 0
-136 132 0
-137 153 0
-137 -99 0
-137 132 0
-138 156 0
-138 -102 0
-138 132 0
-139 159 0
-139 -105 0
-139 132 0
-242 250 0
-242 -196 0
-242 241 0
-243 253 0
-243 -199 0
-243 241 0
-244 256 0
-244 -202 0
-244 241 0
-245 259 0
-245 -205 0
-245 241 0
-246 262 0
-246 -208 0
-246 241 0
-247 265 0
-247 -211 0
-247 241 0
-248 268 0
-248 -214 0
-248 241 0
-80 89 0
-80 -31 0
-80 76 0
-81 92 0
-81 -34 0
-81 76 0
-82 95 0
-82 -37 0
-82 76 0
-83 98 0
-83 -40 0
-83 76 0
-84 101 0
-84 -43 0
-84 76 0
-85 104 0
-85 -46 0
-85 76 0
-86 107 0
-86 -49 0
-86 76 0
-189 198 0
-189 -140 0
-189 185 0
-190 201 0
-190 -143 0
-190 185 0
-191 204 0
-191 -146 0
-191 185 0
-192 207 0
-192 -149 0
-192 185 0
-193 210 0
-193 -152 0
-193 185 0
-194 213 0
-194 -155 0
-194 185 0
-195 216 0
-195 -158 0
-195 185 0
-298 307 0
-298 -249 0
-298 294 0
-299 310 0
-299 -252 0
-299 294 0
-300 313 0
-300 -255 0
-300 294 0
-301 316 0
-301 -258 0
-301 294 0
-302 319 0
-302 -261 0
-302 294 0
-303 322 0
-303 -264 0
-303 294 0
-304 325 0
-304 -267 0
-304 294 0
-76 31 -77 -78 -79 80 0
-76 34 77 -78 -79 81 0
-76 37 -77 78 -79 82 0
-76 40 77 78 -79 83 0
-76 43 -77 -78 79 84 0
-76 46 77 -78 79 85 0
-76 49 -77 78 79 86 0
-185 140 -186 -187 -188 189 0
-185 143 186 -187 -188 190 0
-185 146 -186 187 -188 191 0
-185 149 186 187 -188 192 0
-185 152 -186 -187 188 193 0
-185 155 186 -187 188 194 0
-185 158 -186 187 188 195 0
-294 249 -295 -296 -297 298 0
-294 252 295 -296 -297 299 0
-294 255 -295 296 -297 300 0
-294 258 295 296 -297 301 0
-294 261 -295 -296 297 302 0
-294 264 295 -296 297 303 0
-294 267 -295 296 297 304 0
